
Gurobi 12.0.2 (win64) logging started Wed Nov 19 16:47:29 2025

Set parameter LogFile to value "C:\Ioana\_uni\honours\slp\algorithm\Main_files\results\paracetamol_respiration_improved\Task_002_Sample001_irr_gurobi.log"
Gurobi Optimizer version 12.0.2 build v12.0.2rc0 (win64 - Windows 11.0 (26100.2))

CPU model: Intel(R) Core(TM) Ultra 5 125H, instruction set [SSE2|AVX|AVX2]
Thread count: 14 physical cores, 18 logical processors, using up to 18 threads

Non-default parameters:
TimeLimit  2200

Optimize a model with 47236 rows, 34509 columns and 146719 nonzeros
Model fingerprint: 0xbc094a7e
Variable types: 17260 continuous, 17249 integer (17249 binary)
Coefficient statistics:
  Matrix range     [1e-04, 8e+04]
  Objective range  [1e-04, 9e-01]
  Bounds range     [1e+00, 1e+03]
  RHS range        [1e+00, 1e+00]
Presolve removed 30783 rows and 21546 columns
Presolve time: 0.36s
Presolved: 16453 rows, 12963 columns, 54695 nonzeros
Variable types: 6418 continuous, 6545 integer (6545 binary)

Root relaxation: objective 6.821158e-05, 1579 iterations, 0.10 seconds (0.15 work units)

    Nodes    |    Current Node    |     Objective Bounds      |     Work
 Expl Unexpl |  Obj  Depth IntInf | Incumbent    BestBd   Gap | It/Node Time

     0     0    0.00007    0    9          -    0.00007      -     -    0s
H    0     0                       0.1316208    0.00007   100%     -    0s
     0     0    0.04293    0   14    0.13162    0.04293  67.4%     -    0s
     0     0    0.04293    0    8    0.13162    0.04293  67.4%     -    1s
     0     0    0.11682    0   14    0.13162    0.11682  11.2%     -    1s
     0     0    0.13162    0   16    0.13162    0.13162  0.00%     -    1s

Cutting planes:
  Cover: 1
  MIR: 4
  Flow cover: 7
  Flow path: 2

Explored 1 nodes (4055 simplex iterations) in 1.35 seconds (1.19 work units)
Thread count was 18 (of 18 available processors)

Solution count 1: 0.131621 

Optimal solution found (tolerance 1.00e-04)
Best objective 1.316207845587e-01, best bound 1.316207845587e-01, gap 0.0000%
